%NProcShared=4
%Mem=4GB
%Chk=pyrrole_rdkit.chk
#p opt B3LYP/6-31G(d)

pyrrole

0 1
C       0.31148300      1.15169500      0.06859500
C       1.19403300      0.04628700      0.01650100
C       0.42231500     -1.09189000     -0.05668500
N      -0.89446400     -0.71175100     -0.05056100
C      -0.97198800      0.65449800      0.02561700
H       0.58311300      2.19751300      0.13075200
H       2.27579400      0.07740300      0.03084400
H       0.69638300     -2.13678600     -0.11243800
H      -1.68551900     -1.34121500     -0.09527700
H      -1.93115000      1.15424600      0.04265300

