%NProcShared=4
%Mem=4GB
%Chk=neopentane_rdkit.chk
#p opt B3LYP/6-31G(d)

neopentane

0 1
C       0.21616700     -1.25597000      0.85619600
C      -0.00000100     -0.00000000     -0.00000000
C      -0.21683200      1.21282500      0.91613300
C      -1.23442900     -0.19485200     -0.89189600
C       1.23509300      0.23799600     -0.88043300
H       0.37411600     -2.14046200      0.22888000
H      -0.65076600     -1.45236300      1.49702200
H       1.09240000     -1.14682200      1.50512000
H      -0.37431900      2.12679800      0.33248100
H       0.64961600      1.37778400      1.56640800
H      -1.09355000      1.07224900      1.55831900
H      -1.10928100     -1.05535400     -1.55873500
H      -1.41492500      0.68729800     -1.51642300
H      -2.13415300     -0.36725500     -0.29058700
H       1.41607000     -0.61272000     -1.54701200
H       2.13436300      0.38091700     -0.27077300
H       1.11043100      1.12993200     -1.50470000

