%NProcShared=4
%Mem=4GB
%Chk=ethylene_rdkit.chk
#p opt B3LYP/6-31G(d)

ethylene

0 1
C      -0.66680800     -0.03751600     -0.00648100
C       0.66680800      0.03751600      0.00648100
H      -1.26840600      0.76077500     -0.42968700
H      -1.18316000     -0.89870700      0.40585800
H       1.26840600     -0.76077500      0.42968700
H       1.18316000      0.89870700     -0.40585800

