%NProcShared=4
%Mem=4GB
%Chk=methane_xtb.chk
#p opt B3LYP/6-31G(d)

methane [xtb]

0 1
C      -0.43349194      0.95528468      1.54379145
H      -0.09263381     -0.04953903      0.18964374
H       1.39219318      1.52934163     -1.13784524
H      -1.55988195     -0.67889635     -0.90861642
H       0.69381452     -1.75619093      0.31302747

