%NProcShared=4
%Mem=4GB
%Chk=methane_rdkit.chk
#p opt B3LYP/6-31G(d)

methane [rdkit]

0 1
C      -0.00000000     -0.00000000     -0.00000000
H      -0.67534300      0.85412300     -0.08536100
H      -0.39494600     -0.83593800     -0.58148500
H       0.08475400     -0.29374100      1.04853800
H       0.98553500      0.27555600     -0.38169200

