%NProcShared=4
%Mem=4GB
%Chk=cyclopentane_ml.chk
#p opt freq B3LYP/6-31G(d)

cyclopentane ml

0 1
C      -0.33899000      1.22445000      0.11879100
C       1.04834000      0.68839700     -0.27259700
C       1.02621200     -0.72960100      0.24868500
C      -0.39123900     -1.20819200     -0.11022600
C      -1.27870800      0.02713900      0.01492100
H      -0.32035900      1.59052600      1.15884400
H      -0.65589400      2.05700000     -0.52053800
H       1.14890500      0.70479000     -1.36017700
H       1.84457300      1.28276800      0.16835700
H       1.15105200     -0.75045000      1.33367000
H       1.78785300     -1.35487700     -0.21021700
H      -0.40982300     -1.57599400     -1.15046200
H      -0.72482600     -2.02962100      0.53639900
H      -1.93886400      0.11260200     -0.85899100
H      -1.92144000     -0.03599000      0.90356100

