%NProcShared=4
%Mem=4GB
%Chk=cyclopentane_rdkit.chk
#p opt freq B3LYP/6-31G(d)

cyclopentane rdkit

0 1
C      -0.33899000      1.22445000      0.11879100
C       1.03304800      0.69430600     -0.26828300
C       1.01058900     -0.73487700      0.24472900
C      -0.38995500     -1.20997900     -0.11040700
C      -1.28006700      0.02540800      0.01477100
H      -0.32046300      1.58848700      1.15305100
H      -0.65521500      2.05521700     -0.51916900
H       1.14875300      0.70476600     -1.35854300
H       1.84476000      1.28290700      0.16846100
H       1.15086400     -0.75041900      1.33203900
H       1.78803100     -1.35502300     -0.21032500
H      -0.40971900     -1.57394600     -1.14466900
H      -0.72411200     -2.02786100      0.53501500
H      -1.93745500      0.11241900     -0.85712500
H      -1.92006800     -0.03585500      0.90166400

