%NProcShared=4
%Mem=4GB
%Chk=benzene_rdkit.chk
#p opt B3LYP/6-31G(d)

benzene [rdkit]

0 1
C      -1.21670300     -0.68201400      0.00552500
C      -0.01770400     -1.39458000      0.01929600
C       1.19899900     -0.71256600      0.01377400
C       1.21670300      0.68201400     -0.00552200
C       0.01770400      1.39458000     -0.01929500
C      -1.19899900      0.71256600     -0.01377100
H      -2.16465500     -1.21338100      0.00982400
H      -0.03149800     -2.48111800      0.03432700
H       2.13315800     -1.26773700      0.02450400
H       2.16465500      1.21338100     -0.00982700
H       0.03149700      2.48111800     -0.03433200
H      -2.13315800      1.26773700     -0.02450400

