%NProcShared=4
%Mem=4GB
%Chk=benzene_xtb.chk
#p opt B3LYP/6-31G(d)

benzene [xtb]

0 1
C       0.09279992     -2.25779776      0.53675326
C       2.82262967      0.03223289     -0.20211066
C       0.59022299     -0.25833757     -0.80674531
C      -0.57717123      0.40554868      0.98899165
C      -1.67164444     -0.14625317     -0.99670170
C       0.59974917      2.10758272     -0.43915352
H       1.48790558      0.85888540      0.44933592
H       1.74642031     -1.37721696     -0.14907181
H      -2.11484532     -1.43062709      0.94442388
H      -0.74796387     -0.98115105      0.08912923
H      -0.56379323      0.99306833     -0.56383146
H      -1.66430855      2.05406657      0.14898051

