%NProcShared=4
%Mem=4GB
%Chk=furan_rdkit.chk
#p opt B3LYP/6-31G(d)

furan

0 1
C       0.70455400      0.74860200     -0.03285500
C      -0.71135700      0.74246100     -0.02456200
C      -1.08785400     -0.57944500      0.02851700
O       0.00631300     -1.38375200      0.05327900
C       1.09309800     -0.56998600      0.01574000
H       1.36168000      1.60585800     -0.06962100
H      -1.37628000      1.59398200     -0.05358600
H      -2.04165300     -1.08773500      0.05353500
H       2.05149700     -1.06998400      0.02955400

