%NProcShared=4
%Mem=4GB
%Chk=pentane_rdkit.chk
#p opt B3LYP/6-31G(d)

pentane

0 1
C      -2.38355200      0.23372200      0.78713800
C      -1.34606100     -0.24632400     -0.21521900
C       0.06685900      0.15948900      0.20327900
C       1.10657200     -0.32496200     -0.80690400
C       2.51368600      0.07670500     -0.39429600
H      -3.38635500     -0.06729100      0.46824700
H      -2.36833800      1.32473200      0.87546300
H      -2.19935600     -0.19412300      1.77777300
H      -1.40950100     -1.33712700     -0.30378400
H      -1.57755000      0.17335600     -1.20111900
H       0.12389700      1.25107000      0.29463400
H       0.29191700     -0.25916600      1.19182600
H       0.88849100      0.09428700     -1.79604000
H       1.05654000     -1.41619500     -0.89870200
H       3.24086200     -0.27977400     -1.13053800
H       2.60645400      1.16522900     -0.32468000
H       2.77543400     -0.35362700      0.57762900

