%NProcShared=4
%Mem=4GB
%Chk=tert-butanol_rdkit.chk
#p opt B3LYP/6-31G(d)

tert-butanol

0 1
C       1.37992500     -0.21098900      0.36810500
C      -0.00113900      0.01969900     -0.24372900
C      -0.74092200      1.13926700      0.48715000
C      -0.82035900     -1.26895400     -0.22213800
O       0.16496900      0.40105300     -1.60992500
H       1.31023100     -0.52459000      1.41476600
H       1.92969300     -0.97798300     -0.18922400
H       1.98642400      0.70060200      0.31969100
H      -1.70961400      1.33901400      0.01505400
H      -0.17537900      2.07693200      0.44103400
H      -0.91173400      0.89004400      1.53948800
H      -0.31544400     -2.06173500     -0.78597600
H      -0.98888500     -1.62375700      0.79985100
H      -1.79404400     -1.12037200     -0.70298700
H       0.68627800      1.22176900     -1.63115900

