%NProcShared=4
%Mem=4GB
%Chk=THF_rdkit.chk
#p opt B3LYP/6-31G(d)

THF

0 1
C       0.11795600     -0.86929100      0.59536200
C      -1.03775400     -0.19396300     -0.09737500
C      -0.49413400      1.20011100     -0.32308300
O       0.92341600      1.06743700     -0.49994600
C       1.30654800     -0.26098800     -0.11676500
H       0.13163300     -0.58654200      1.65464100
H       0.09377400     -1.96018400      0.53160800
H      -1.22864100     -0.68156200     -1.06071000
H      -1.96489900     -0.20277000      0.48143400
H      -0.66313400      1.83785400      0.55114600
H      -0.93183000      1.68576200     -1.19969400
H       1.54772700     -0.81529400     -1.03007200
H       2.19933600     -0.22057000      0.51345400

