%NProcShared=4
%Mem=4GB
%Chk=cyclohexane_rdkit.chk
#p opt B3LYP/6-31G(d)

cyclohexane

0 1
C      -0.02000300     -1.47026300     -0.12123500
C      -1.27730700     -0.64059400     -0.36728300
C      -1.24745000      0.67122000      0.41243300
C       0.02000300      1.47026300      0.12123500
C       1.27730700      0.64059400      0.36728300
C       1.24745000     -0.67122000     -0.41243400
H      -0.00545400     -1.80898500      0.92205800
H      -0.04211600     -2.36851300     -0.74847800
H      -1.36771500     -0.42530100     -1.43914100
H      -2.16294500     -1.21934900     -0.08186400
H      -1.30467600      0.45771800      1.48693200
H      -2.12843100      1.27140500      0.15860800
H       0.00545600      1.80898500     -0.92205800
H       0.04211600      2.36851300      0.74847700
H       2.16294500      1.21934800      0.08186600
H       1.36771400      0.42529900      1.43914200
H       2.12843100     -1.27140400     -0.15860900
H       1.30467500     -0.45771700     -1.48693200

