%NProcShared=4
%Mem=4GB
%Chk=diethyl_ether_xtb.chk
#p opt B3LYP/6-31G(d)

diethyl_ether [xtb]

0 1
C       2.20189723      1.45191673      0.79357794
C       0.08835698      0.54825543     -1.37928641
O       0.84415856     -0.01556315      0.46505289
C      -1.28576422     -0.99383225     -0.11975547
C      -0.92736406      1.34149735      0.67895259
H       0.85006512      0.55218126      1.77887738
H       2.25594320      0.15844972     -0.14443630
H       0.32646736     -1.23333798     -0.38600547
H       0.35473145     -2.09667040     -2.01339878
H       0.60891828      1.44255250     -0.03538700
H      -0.01346130     -0.92497337      2.60639608
H      -0.91976171     -0.75452530     -1.73869993
H      -2.24744920      0.29405965     -2.26828167
H      -1.70497373      0.52340968     -0.54734498
H      -0.43176295     -0.29341887      1.16946014

