%NProcShared=4
%Mem=4GB
%Chk=diethyl_ether_rdkit.chk
#p opt B3LYP/6-31G(d)

diethyl_ether [rdkit]

0 1
C       2.11562000     -0.18717500      0.06523500
C       0.89949300     -0.37050300     -0.82541300
O      -0.16415700     -0.98996400     -0.10599100
C      -0.97495000     -0.08454300      0.63931500
C      -2.06197100      0.51070900     -0.23811700
H       1.90546500      0.50032000      0.88994000
H       2.95816600      0.20935100     -0.50862100
H       2.41136800     -1.14161800      0.51303100
H       1.16235900     -1.04230500     -1.64909300
H       0.58497000      0.58120300     -1.26592700
H      -1.44503800     -0.66240700      1.44178300
H      -0.37257300      0.69966600      1.10929500
H      -1.63670400      1.12046400     -1.04080100
H      -2.64741800     -0.28190600     -0.71557000
H      -2.73462900      1.13870900      0.35313000

