%NProcShared=4
%Mem=4GB
%Chk=aniline_rdkit.chk
#p opt B3LYP/6-31G(d)

aniline

0 1
N       2.30670100      0.19976400     -0.17107300
C       0.91622300      0.04411200     -0.11559500
C       0.34870100     -0.92765800      0.71271400
C      -1.03765300     -1.01480400      0.86512900
C      -1.86809200     -0.10060000      0.22127400
C      -1.30987900      0.90978600     -0.55812800
C       0.07715500      0.99212600     -0.70699000
H       2.62885700      0.68680500     -1.00120100
H       2.81939700     -0.66027900     -0.00501700
H       0.98345300     -1.62833700      1.24807200
H      -1.46563900     -1.78738500      1.49804700
H      -2.94601500     -0.16277400      0.34337300
H      -1.95092500      1.64349900     -1.03913000
H       0.49771400      1.80574600     -1.29147500

