%NProcShared=4
%Mem=4GB
%Chk=acetaldehyde_rdkit.chk
#p opt B3LYP/6-31G(d)

acetaldehyde

0 1
C      -0.64872400     -0.01228200     -0.05001900
C       0.84399700      0.01032500      0.06826500
O       1.54401000      0.91272700     -0.37900000
H      -0.99624300      0.87689100     -0.58177400
H      -0.95022500     -0.90626900     -0.60076100
H      -1.08641300     -0.03165800      0.95072100
H       1.29359700     -0.84973400      0.59256800

