%NProcShared=4
%Mem=4GB
%Chk=hexane_rdkit.chk
#p opt B3LYP/6-31G(d)

hexane

0 1
C       2.73315300     -0.11209200      0.34071600
C       1.67552600      0.97796500      0.26077900
C       0.38640600      0.53256800     -0.43503900
C      -0.38640700     -0.53256200      0.34758700
C      -1.67552300     -0.97796300     -0.34823300
C      -2.73315500      0.11208700     -0.42817200
H       2.41687500     -0.93252800      0.99118300
H       2.95320700     -0.52012000     -0.65079500
H       3.66186400      0.29612100      0.75240800
H       1.44904300      1.34231300      1.26953800
H       2.09358600      1.82556900     -0.29551700
H       0.62098500      0.15809200     -1.43876600
H      -0.24314700      1.41980000     -0.56641200
H       0.24314900     -1.41979100      0.47896300
H      -0.62098900     -0.15808500      1.35131300
H      -2.09357900     -1.82557100      0.20806000
H      -1.44903500     -1.34230900     -1.35699300
H      -2.95321300      0.52011400      0.56333900
H      -3.66186400     -0.29613200     -0.83986400
H      -2.41688300      0.93252600     -1.07863800

