%NProcShared=4
%Mem=4GB
%Chk=cyclohexanone_rdkit.chk
#p opt B3LYP/6-31G(d)

cyclohexanone

0 1
O      -2.25425200      1.52310900     -0.03730800
C      -1.23607100      0.86645200      0.17543900
C      -1.30019500     -0.59852700      0.54537400
C      -0.25921700     -1.39424100     -0.23002400
C       1.13470100     -0.78500300     -0.09599000
C       1.14097100      0.67000700     -0.55972300
C       0.13125100      1.51180400      0.20831500
H      -1.13292900     -0.68365500      1.62454300
H      -2.30195500     -0.98121900      0.32398500
H      -0.53764100     -1.42321100     -1.29101600
H      -0.24627100     -2.43010900      0.12686500
H       1.46631300     -0.84322400      0.94780400
H       1.84750900     -1.36399400     -0.69386100
H       2.14387100      1.09359700     -0.43593900
H       0.90671100      0.70615000     -1.63111400
H       0.06715800      2.51148300     -0.23386500
H       0.43004400      1.62058300      1.25651400

