%NProcShared=4
%Mem=4GB
%Chk=ethyl_acetate_rdkit.chk
#p opt B3LYP/6-31G(d)

ethyl_acetate

0 1
C      -2.22177000      0.64574700      0.08551600
C      -1.13532600     -0.35481400     -0.25741000
O       0.12937400      0.22025000      0.09237800
C       1.19684600     -0.58333400     -0.16727900
C       2.46554600      0.10581200      0.23194400
O       1.14180800     -1.70365200     -0.65402100
H      -2.19830700      0.88961600      1.15279400
H      -2.06804500      1.58340500     -0.45879200
H      -3.20994700      0.24984900     -0.16479100
H      -1.29106400     -1.27898600      0.31039000
H      -1.15838100     -0.57230600     -1.33114700
H       2.58327500      1.02784900     -0.34281700
H       2.45018900      0.31903200      1.30370000
H       3.31580200     -0.54846900      0.01900400

