%NProcShared=4
%Mem=4GB
%Chk=methylamine_rdkit.chk
#p opt B3LYP/6-31G(d)

methylamine

0 1
C      -0.57365800      0.02601700      0.02019400
N       0.84500400      0.02755800      0.32938400
H      -1.08481500     -0.75061100      0.59582400
H      -0.73515000     -0.16308100     -1.04485800
H      -1.01702500      0.99231200      0.27609200
H       1.31396800      0.73466900     -0.23521600
H       1.25167600     -0.86686400      0.05858000

