%NProcShared=4
%Mem=4GB
%Chk=acetylene_rdkit.chk
#p opt freq B3LYP/6-31G(d)

acetylene rdkit

0 1
C      -0.59695600      0.25362900      0.00965700
C       0.59695600      0.13145200     -0.00965700
H      -1.65708600      0.36211600      0.02680600
H       1.65708600      0.02296500     -0.02680700

