%NProcShared=4
%Mem=4GB
%Chk=acetylene_ml.chk
#p opt freq B3LYP/6-31G(d)

acetylene ml-corrected

0 1
C      -0.59695600      0.25362900      0.00965700
C       0.60222800      0.13091200     -0.00974200
H      -1.65749900      0.36215900      0.02681300
H       1.65749700      0.02292300     -0.02681400

