%NProcShared=4
%Mem=4GB
%Chk=pyridine_rdkit.chk
#p opt B3LYP/6-31G(d)

pyridine

0 1
C      -0.31785000      1.13778200      0.07743700
C      -1.28556000      0.14121200      0.00558100
C      -0.86466000     -1.17609400     -0.08390300
N       0.43314100     -1.55048000     -0.10552600
C       1.34988200     -0.56081700     -0.03431100
C       1.02715900      0.78376700      0.05737200
H      -0.60945500      2.18161700      0.14847900
H      -2.34190000      0.38413200      0.01891900
H      -1.58165100     -1.98986400     -0.14234100
H       2.38551000     -0.88764800     -0.05350100
H       1.80538400      1.53639300      0.11179300

