%NProcShared=4
%Mem=4GB
%Chk=cyclohexanol_rdkit.chk
#p opt B3LYP/6-31G(d)

cyclohexanol

0 1
O       1.84654100      0.03061700     -1.05830600
C       1.32566500      0.18088800      0.26080900
C       0.40254200      1.39910200      0.28728500
C      -0.87198800      1.17526400     -0.52737400
C      -1.60029700     -0.09419100     -0.09531200
C      -0.68430100     -1.31376100     -0.14309900
C       0.58853800     -1.09378100      0.67470200
H       2.44026600     -0.73941500     -1.05284100
H       2.17613800      0.35361800      0.92950300
H       0.92651900      2.27365000     -0.11601900
H       0.13081800      1.62715000      1.32514800
H      -1.53728200      2.03848700     -0.41206000
H      -0.62191500      1.10792400     -1.59323000
H      -1.98244300      0.03453100      0.92488900
H      -2.46872000     -0.25961500     -0.74282200
H      -1.21904900     -2.19060200      0.23930700
H      -0.42058100     -1.53234100     -1.18510200
H       1.24224100     -1.96440000      0.54628700
H       0.32731100     -1.03312300      1.73823500

