%NProcShared=4
%Mem=4GB
%Chk=ethanol_rdkit.chk
#p opt B3LYP/6-31G(d)

ethanol

0 1
C       0.88220400     -0.19343300      0.04510500
C      -0.44521100      0.51995400     -0.10679600
O      -1.46905100     -0.41822900     -0.40423400
H       0.83674100     -0.92696700      0.85678600
H       1.68497700      0.51788800      0.25829900
H       1.13032500     -0.74417100     -0.86815100
H      -0.71225400      1.05196100      0.81132300
H      -0.39880600      1.24495200     -0.92458000
H      -1.50892500     -1.05195400      0.33224700

