%NProcShared=4
%Mem=4GB
%Chk=piperidine_rdkit.chk
#p opt B3LYP/6-31G(d)

piperidine

0 1
C       0.64901800     -1.22598800      0.07240200
C      -0.85975700     -1.13896100     -0.13513600
C      -1.41338500      0.19003400      0.37502500
N      -0.73041000      1.32733600     -0.24274400
C       0.70938000      1.29263900      0.01676900
C       1.34092500      0.00411200     -0.50653600
H       0.86671000     -1.29652500      1.14522100
H       1.04183400     -2.13467300     -0.39671200
H      -1.08754900     -1.24629900     -1.20329100
H      -1.35300200     -1.96964000      0.38201300
H      -1.32293800      0.24446000      1.46684200
H      -2.48155300      0.24784400      0.13903800
H      -1.11808400      2.19427700      0.12836600
H       0.90080500      1.39951900      1.09154200
H       1.17911400      2.14926200     -0.47877200
H       1.27223700     -0.02059000     -1.60154200
H       2.40665600     -0.01680600     -0.25248500

