%NProcShared=4
%Mem=4GB
%Chk=naphthalene_rdkit.chk
#p opt B3LYP/6-31G(d)

naphthalene

0 1
C       2.44249300     -0.65757200      0.10552800
C       2.37028400      0.63085100      0.62696700
C       1.13887100      1.28339700      0.70648500
C      -0.03668500      0.65453800      0.26490900
C      -1.28348600      1.29684200      0.33782000
C      -2.44249500      0.65756600     -0.10551500
C      -2.37028100     -0.63084300     -0.62698400
C      -1.13886900     -1.28339500     -0.70649500
C       0.03668600     -0.65453600     -0.26491700
C       1.28348500     -1.29684800     -0.33780900
H       3.40066000     -1.16663000      0.04313100
H       3.27196900      1.12958600      0.97243300
H       1.10244900      2.28987000      1.11695600
H      -1.35989400      2.30355600      0.74216000
H      -3.40066700      1.16661700     -0.04311400
H      -3.27197000     -1.12957000     -0.97244900
H      -1.10245100     -2.28988400     -1.11692500
H       1.35990000     -2.30354700     -0.74218300

