%NProcShared=4
%Mem=4GB
%Chk=acetonitrile_rdkit.chk
#p opt B3LYP/6-31G(d)

acetonitrile

0 1
C      -0.48627900     -0.00121000      0.00628300
C       0.97551100      0.00242600     -0.01260400
N       2.13565800      0.00531300     -0.02759600
H      -0.88477200     -0.54867600     -0.85302300
H      -0.86208300     -0.47750200      0.91669000
H      -0.87803500      1.01964900     -0.02975000

