%NProcShared=4
%Mem=4GB
%Chk=thiophene_rdkit.chk
#p opt B3LYP/6-31G(d)

thiophene

0 1
C       0.70527900     -0.71524800      0.04355200
C      -0.71959800     -0.70194000      0.01888100
C      -1.22313800      0.57882100     -0.04627600
S       0.01775400      1.75730300     -0.07741700
C       1.23460100      0.55586600     -0.00371100
H       1.31167900     -1.61127000      0.09342500
H      -1.34398500     -1.58646700      0.04744600
H      -2.26043600      0.88266100     -0.07724900
H       2.27784200      0.84027400      0.00134800

