%NProcShared=4
%Mem=4GB
%Chk=chloromethane_rdkit.chk
#p opt B3LYP/6-31G(d)

chloromethane

0 1
C      -0.13896600     -0.00683400      0.00327000
Cl      1.62538000      0.07992600     -0.03824300
H      -0.48381500     -0.65305400     -0.80690300
H      -0.45370000     -0.41762600      0.96508800
H      -0.54889800      0.99758700     -0.12321200

