%NProcShared=4
%Mem=4GB
%Chk=morpholine_rdkit.chk
#p opt B3LYP/6-31G(d)

morpholine

0 1
C       1.01667400     -0.94675100      0.01476800
C       1.33892400      0.55523000     -0.01352200
O       0.36100500      1.31181000      0.71165500
C      -0.95208400      1.07691000      0.18702700
C      -1.30696500     -0.41764200      0.21817200
N      -0.32777800     -1.24047800     -0.51763800
H       1.07305700     -1.31728900      1.04542500
H       1.76133300     -1.49704400     -0.56972000
H       1.38961800      0.92935400     -1.04308500
H       2.31173000      0.73546700      0.45471500
H      -1.00639900      1.47494100     -0.83334500
H      -1.66076200      1.64003300      0.80245500
H      -2.30108400     -0.57200300     -0.21411300
H      -1.34598300     -0.76646100      1.25718200
H      -0.35128700     -0.96607700     -1.49997600

