%NProcShared=4
%Mem=4GB
%Chk=methanol_rdkit.chk
#p opt B3LYP/6-31G(d)

methanol

0 1
C      -0.36997700      0.02307700      0.01972100
O       0.92269700      0.37130200     -0.44075300
H      -0.42754800      0.17981000      1.09964700
H      -0.57289500     -1.02388300     -0.21865100
H      -1.10731700      0.65725900     -0.47803600
H       1.55504000     -0.20756500      0.01807200

