%NProcShared=4
%Mem=4GB
%Chk=dimethyl_ether_rdkit.chk
#p opt B3LYP/6-31G(d)

dimethyl_ether

0 1
C      -1.15162200     -0.22005200      0.08828500
O       0.13674600     -0.68899600      0.46231900
C       1.16514000      0.15194500     -0.04258500
H      -1.89992200     -0.90154500      0.50168700
H      -1.32783000      0.78071900      0.49440600
H      -1.25354500     -0.20811000     -1.00120800
H       1.06368000      1.16471800      0.35931300
H       1.13797600      0.17589100     -1.13630000
H       2.12937800     -0.25457000      0.27408300

