%NProcShared=4
%Mem=4GB
%Chk=formic_acid_rdkit.chk
#p opt B3LYP/6-31G(d)

formic_acid

0 1
O       0.61599800     -0.53800900      0.51878300
C      -0.36592900     -0.02555900     -0.23846700
O      -0.34766300      1.13033700     -0.61731900
H       1.24168500      0.20672100      0.64011500
H      -1.14409100     -0.77349000     -0.44947600

