%NProcShared=4
%Mem=4GB
%Chk=formaldehyde_rdkit.chk
#p opt B3LYP/6-31G(d)

formaldehyde

0 1
C      -0.01213700      0.00218700     -0.00000200
O       1.19307700     -0.21502600      0.00022100
H      -0.75575900     -0.81068900     -0.00019700
H      -0.42518200      1.02352800     -0.00002200

