%NProcShared=4
%Mem=4GB
%Chk=isobutylene_rdkit.chk
#p opt B3LYP/6-31G(d)

isobutylene

0 1
C       0.62915700      1.18410800     -0.41266300
C       0.12036000     -0.16744300     -0.00192900
C       0.90376500     -1.25730300     -0.01448200
C      -1.31830100     -0.22538100      0.42370600
H       0.53637900      1.89283100      0.41662300
H       0.05290900      1.56463700     -1.26222000
H       1.68265200      1.15431000     -0.71022200
H       1.94344700     -1.20662400     -0.32379700
H       0.52774100     -2.23125200      0.28420200
H      -1.62258100     -1.23788000      0.70926200
H      -1.96950100      0.10090400     -0.39366000
H      -1.48602700      0.42909600      1.28518000

