%NProcShared=4
%Mem=4GB
%Chk=propionic_acid_rdkit.chk
#p opt B3LYP/6-31G(d)

propionic_acid

0 1
C      -1.41145300      0.04267000      0.39355900
C      -0.23854900      0.05830600     -0.57052800
C       1.07673000     -0.06845700      0.14739900
O       1.26271200     -0.17445600      1.34700900
O       2.11794700     -0.05457500     -0.70842000
H      -1.34491900      0.87063500      1.10723300
H      -2.35526300      0.13608900     -0.15233900
H      -1.43754400     -0.89056900      0.96598300
H      -0.23938500      0.99949300     -1.13000900
H      -0.33280800     -0.77669900     -1.27247600
H       2.90253200     -0.14243700     -0.12741100

