%NProcShared=4
%Mem=4GB
%Chk=methyl_acetate_rdkit.chk
#p opt B3LYP/6-31G(d)

methyl_acetate

0 1
C      -1.79489400      0.16133000     -0.32502100
O      -0.41636300      0.53372100     -0.30384600
C       0.38496300     -0.35427800      0.34597600
C       1.80561500      0.12003000      0.31553600
O       0.01280000     -1.38952400      0.87978900
H      -2.34656000      0.93505500     -0.86611800
H      -2.19159100      0.10124000      0.69331900
H      -1.92718900     -0.78976000     -0.85030300
H       2.43953900     -0.60063700      0.84009400
H       1.88495300      1.08585600      0.82075400
H       2.14872700      0.19696600     -0.71921800

