%NProcShared=4
%Mem=4GB
%Chk=toluene_rdkit.chk
#p opt B3LYP/6-31G(d)

toluene

0 1
C      -2.21471200      0.16873800      0.02451500
C      -0.71976600      0.05530800     -0.01684000
C       0.08000700      1.20439400      0.01526800
C       1.47186800      1.09753200      0.00856200
C       2.07558500     -0.15820000     -0.01971600
C       1.28809900     -1.30785300     -0.03697600
C      -0.10386100     -1.20228700     -0.03029500
H      -2.68475400     -0.66970400     -0.50017000
H      -2.55046700      1.08797600     -0.46690200
H      -2.56083300      0.17553100      1.06262200
H      -0.37713700      2.19075400      0.04489100
H       2.08484100      1.99467000      0.02832000
H       3.15903800     -0.24089300     -0.02402600
H       1.75766500     -2.28777200     -0.05275400
H      -0.70557400     -2.10819600     -0.03649800

