%NProcShared=4
%Mem=4GB
%Chk=dimethylamine_rdkit.chk
#p opt B3LYP/6-31G(d)

dimethylamine

0 1
C      -1.19804000     -0.05009300      0.13732500
N       0.06506800     -0.70741600     -0.16957900
C       1.14605500      0.26354400     -0.27160400
H      -1.47774900      0.65739900     -0.65002300
H      -1.15341900      0.47868800      1.09506500
H      -1.99254400     -0.79985900      0.20336600
H       0.28330800     -1.37612600      0.56855400
H       1.28932200      0.80552400      0.66892600
H       0.95733700      0.98320900     -1.07482500
H       2.08066000     -0.25487100     -0.50720500

