%NProcShared=4
%Mem=4GB
%Chk=1-butanol_ml.chk
#p opt freq B3LYP/6-31G(d)

1-butanol ml

0 1
C      -2.08110100     -0.28367300      0.54435400
C      -0.58614900     -0.62154100      0.53317300
C       0.12939500      0.09056800     -0.61970800
C       1.61441500     -0.26396700     -0.66378600
O       2.25760000      0.20539000      0.51461400
H      -2.56196700     -0.59599300     -0.39110700
H      -2.23948700      0.79472200      0.67019600
H      -2.58028500     -0.79947900      1.37164200
H      -0.47537800     -1.70719200      0.43709500
H      -0.15914700     -0.32644800      1.49496500
H      -0.34274800     -0.19062800     -1.57864100
H       0.01413900      1.17425400     -0.49050800
H       2.07920500      0.21805700     -1.53010200
H       1.75381100     -1.34743900     -0.74082400
H       3.19240600     -0.03551400      0.43474200

