%NProcShared=4
%Mem=4GB
%Chk=1-butanol_rdkit.chk
#p opt freq B3LYP/6-31G(d)

1-butanol rdkit

0 1
C      -2.08110100     -0.28367300      0.54435400
C      -0.59781600     -0.61890400      0.53326000
C       0.12643100      0.08761800     -0.61493200
C       1.60865500     -0.26259200     -0.66361500
O       2.25582500      0.20409500      0.51136400
H      -2.56086100     -0.59527500     -0.38895600
H      -2.23912300      0.79224300      0.66990700
H      -2.57992800     -0.79911000      1.37105100
H      -0.47569700     -1.70406900      0.43737100
H      -0.15945500     -0.32666100      1.49427200
H      -0.33794900     -0.18777000     -1.56889500
H       0.01441800      1.17162900     -0.49082100
H       2.07820800      0.21702200     -1.52824200
H       1.75349100     -1.34494800     -0.74064700
H       3.19490200     -0.03615700      0.43452900

