%NProcShared=4
%Mem=4GB
%Chk=acetic_acid_rdkit.chk
#p opt B3LYP/6-31G(d)

acetic_acid

0 1
C      -0.95221500     -0.13667800     -0.05279600
C       0.46584600      0.32654800      0.00277800
O       0.85673800      1.47844200     -0.07281900
O       1.33299800     -0.69165800      0.15228900
H      -1.09083500     -0.80381200     -0.90709900
H      -1.21260000     -0.64529500      0.87866900
H      -1.61057600      0.72813000     -0.17445300
H       2.21064400     -0.25567600      0.17343100

