%NProcShared=4
%Mem=4GB
%Chk=1-propanol_rdkit.chk
#p opt B3LYP/6-31G(d)

1-propanol

0 1
C      -1.27834300      0.64810400      0.24315800
C      -0.44293800     -0.62320700      0.19152700
C       1.04526900     -0.33323300      0.05070200
O       1.29717200      0.31487000     -1.18780700
H      -0.97557000      1.28140400      1.08314600
H      -2.33663000      0.39902300      0.37037800
H      -1.17792000      1.22864900     -0.67922900
H      -0.78185700     -1.22642200     -0.65872500
H      -0.61507100     -1.20501700      1.10368800
H       1.61273700     -1.26898300      0.07091300
H       1.39817300      0.30945900      0.86363300
H       2.25497700      0.47535300     -1.23629700

