%NProcShared=4
%Mem=4GB
%Chk=dioxane_rdkit.chk
#p opt B3LYP/6-31G(d)

dioxane

0 1
C      -1.23088700     -0.57413200     -0.20598900
C      -1.02268600      0.74844800      0.53013400
O       0.11963300      1.46769000      0.04259200
C       1.13282900      0.60238600     -0.49086600
C       1.12072100     -0.77670600      0.16672100
O      -0.11967800     -1.46768200     -0.04268100
H      -1.35641600     -0.39935200     -1.28042600
H      -2.12637300     -1.08490800      0.16032000
H      -0.86691000      0.57134500      1.60022900
H      -1.89733200      1.39614000      0.41847900
H       0.95560900      0.51485900     -1.56866900
H       2.10021800      1.09245000     -0.34604800
H       1.92345000     -1.40368500     -0.23265400
H       1.26782200     -0.68685300      1.24885900

