%NProcShared=4
%Mem=4GB
%Chk=propylene_rdkit.chk
#p opt B3LYP/6-31G(d)

propylene

0 1
C      -1.12101100      0.12441900      0.13413200
C       0.20874300     -0.15103300     -0.48734500
C       1.37520500     -0.06199000      0.16321800
H      -1.62033100      0.93884400     -0.39950500
H      -1.75318700     -0.76658100      0.07210800
H      -1.03389700      0.40893400      1.18752000
H       0.20752500     -0.44088300     -1.53580400
H       1.42558600      0.22340200      1.20941500
H       2.31136800     -0.27511200     -0.34373800

