%NProcShared=4
%Mem=4GB
%Chk=dimethylsulfoxide_ml.chk
#p opt freq B3LYP/6-31G(d)

dimethylsulfoxide ml

0 1
C      -1.15563100     -0.37612400     -0.60796200
S       0.03134900      1.01396700     -0.36338300
C       1.30572200     -0.02241500      0.46789900
O      -0.58522200      1.91563400      0.67002200
H      -1.41556300     -0.82087900      0.35915100
H      -2.06154400      0.01774500     -1.08200600
H      -0.70404200     -1.13224500     -1.26104500
H       1.64776500     -0.77180400     -0.23812100
H       2.11010400      0.65701300      0.73247700
H       0.86879500     -0.47078800      1.35274300

