%NProcShared=4
%Mem=4GB
%Chk=dimethylsulfoxide_rdkit.chk
#p opt freq B3LYP/6-31G(d)

dimethylsulfoxide rdkit

0 1
C      -1.15563100     -0.37612400     -0.60796200
S       0.00876700      0.98752100     -0.36803600
C       1.28147700     -0.00269800      0.45208400
O      -0.57954600      1.90733300      0.66050800
H      -1.41481800     -0.81960500      0.35637900
H      -2.05894800      0.01661600     -1.08064800
H      -0.70567500     -1.12951200     -1.25868400
H       1.64652800     -0.76909500     -0.23556900
H       2.10779900      0.65506600      0.73171800
H       0.87004700     -0.46950300      1.35020800

