%NProcShared=4
%Mem=4GB
%Chk=butane_rdkit.chk
#p opt B3LYP/6-31G(d)

butane

0 1
C      -1.57521700      0.46946700      0.02709100
C      -0.55694200     -0.31457000     -0.78629000
C       0.64857100     -0.77828700      0.03187600
C       1.50511200      0.36668200      0.55011400
H      -1.16251700      1.42010100      0.37728600
H      -1.90971800     -0.10479200      0.89680600
H      -2.45269200      0.69552100     -0.58729800
H      -0.22095200      0.29430800     -1.63370100
H      -1.05225000     -1.19769700     -1.20718500
H       0.31306300     -1.39292300      0.87531100
H       1.27184500     -1.42141600     -0.60082400
H       2.39665600     -0.02720600      1.04864900
H       0.96154700      0.97685600      1.27736100
H       1.83349500      1.01395500     -0.26919600

