%NProcShared=4
%Mem=4GB
%Chk=acetophenone_ml.chk
#p opt freq B3LYP/6-31G(d)

acetophenone ml

0 1
C      -2.58407300      0.77466800      0.50429900
C      -1.69879100     -0.46296800      0.49385500
O      -2.17089300     -1.55468200      0.70555100
C      -0.23781200     -0.29230700      0.21619500
C       0.33566700      0.95546500     -0.03169200
C       1.70599600      1.05111700     -0.28455300
C       2.50118600     -0.09500900     -0.28993800
C       1.92592900     -1.34229500     -0.04179100
C       0.55744700     -1.44179100      0.21119600
H      -2.57087700      1.25918700     -0.47706500
H      -3.61711400      0.47642600      0.72148500
H      -2.25978200      1.46682100      1.28773600
H      -0.25223100      1.86941000     -0.03554200
H       2.15845800      2.02038700     -0.47834300
H       3.56732800     -0.02027400     -0.48670600
H       2.54303200     -2.23821400     -0.04520800
H       0.11893600     -2.42116900      0.40371600

