%NProcShared=4
%Mem=4GB
%Chk=acetophenone_rdkit.chk
#p opt freq B3LYP/6-31G(d)

acetophenone rdkit

0 1
C      -2.58407300      0.77466800      0.50429900
C      -1.70770100     -0.45051200      0.49396000
O      -2.17622000     -1.56700000      0.70793900
C      -0.24822000     -0.29352300      0.21817300
C       0.33539600      0.95487500     -0.03157500
C       1.70702900      1.04962800     -0.28456000
C       2.50028000     -0.09697400     -0.28954700
C       1.92639500     -1.34226100     -0.04187700
C       0.55693100     -1.44104500      0.21120000
H      -2.57089500      1.25852200     -0.47571800
H      -3.61489700      0.47706700      0.72101900
H      -2.26022700      1.46587100      1.28666100
H      -0.25151700      1.86830000     -0.03553800
H       2.15828300      2.02001300     -0.47826800
H       3.56691700     -0.02030300     -0.48663100
H       2.54280800     -2.23788700     -0.04520700
H       0.11971000     -2.41943900      0.40337600

