%NProcShared=4
%Mem=4GB
%Chk=MEK_rdkit.chk
#p opt B3LYP/6-31G(d)

MEK

0 1
C       1.54751400     -0.25161200     -0.40263400
C       0.51586700     -0.51118400      0.67657800
C      -0.59447700      0.51573500      0.63240000
C      -1.64151600      0.35685600     -0.43863500
O      -0.62609300      1.45831100      1.42351900
H       2.37223200     -0.96626600     -0.32143200
H       1.95880700      0.75967100     -0.31750700
H       1.11052200     -0.34994000     -1.40143300
H       0.08102300     -1.51058400      0.57204100
H       0.98593500     -0.46689200      1.66532400
H      -1.19854100      0.53582100     -1.42078100
H      -2.44589500      1.07948800     -0.27456300
H      -2.06537800     -0.64940400     -0.39287800

