%NProcShared=4
%Mem=4GB
%Chk=2-propanol_rdkit.chk
#p opt B3LYP/6-31G(d)

2-propanol

0 1
C      -1.14170800     -0.52825300     -0.38220100
C       0.06050300      0.40358700     -0.38408200
O      -0.29182400      1.62465100      0.25899500
C       1.25539700     -0.21101600      0.32875100
H      -1.99283700     -0.05313900     -0.88174100
H      -1.46370000     -0.75427200      0.64034200
H      -0.91627600     -1.46863300     -0.89417300
H       0.33487000      0.64403300     -1.41645000
H      -0.53705100      1.41934600      1.17743000
H       2.09839200      0.48830200      0.33166900
H       1.02138400     -0.42539000      1.37738800
H       1.57285100     -1.13921800     -0.15592700

