%NProcShared=4
%Mem=4GB
%Chk=ethane_rdkit.chk
#p opt B3LYP/6-31G(d)

ethane [rdkit]

0 1
C       0.75011700     -0.08390100      0.04318800
C      -0.75011700      0.08390200     -0.04318800
H       1.05003200     -1.06359800     -0.34056300
H       1.08685700     -0.00261400      1.08098200
H       1.25755800      0.68654000     -0.54498400
H      -1.08686000      0.00261300     -1.08098200
H      -1.25755500     -0.68654000      0.54498300
H      -1.05003200      1.06359800      0.34056300

