%NProcShared=4
%Mem=4GB
%Chk=ethane_xtb.chk
#p opt B3LYP/6-31G(d)

ethane [xtb]

0 1
C      -1.11452388     -0.13261142     -0.01006557
C       1.11405073      0.13246779      0.00960619
H      -1.80373605      0.67191778      1.78835085
H      -1.44648612     -2.18776583     -0.15420359
H      -1.80209858      0.91493584     -1.67853472
H       1.80231425     -0.91572964      1.67965324
H       1.80398660     -0.67220017     -1.78902676
H       1.44649306      2.18898565      0.15422036

