%NProcShared=4
%Mem=4GB
%Chk=propane_rdkit.chk
#p opt B3LYP/6-31G(d)

propane [rdkit]

0 1
C       1.17133100     -0.51261500      0.00555900
C       0.13067500      0.58293100      0.16425100
C      -1.26994600      0.07270100     -0.12951200
H       1.17453100     -0.90569500     -1.01614900
H       2.17021200     -0.12115900      0.22211300
H       0.97531000     -1.34239200      0.69218600
H       0.36671500      1.41111200     -0.51310300
H       0.16857900      0.97679700      1.18593700
H      -2.00037900      0.87877400     -0.00863900
H      -1.34390400     -0.30188000     -1.15548900
H      -1.54312400     -0.73857500      0.55284700

