%NProcShared=4
%Mem=4GB
%Chk=propane_xtb.chk
#p opt B3LYP/6-31G(d)

propane [xtb]

0 1
C      -0.66974080     -0.04063155      0.12386414
C       1.16431931     -0.72421574      1.22117217
C       1.18939775      1.44261814     -0.13713762
H      -0.49608482     -1.56010802      0.80465307
H      -1.44836394     -2.47920358      1.78610311
H      -0.38972594      1.28883970     -2.65872377
H       1.20797359     -0.31776822     -0.40528101
H      -0.22990013      0.97847233     -1.07095753
H       0.33720187      0.81113485      1.16916660
H       0.52917433     -1.22037731     -1.63911725
H      -1.19425022      1.82124041      0.80625709

