%NProcShared=4
%Mem=4GB
%Chk=acetone_rdkit.chk
#p opt B3LYP/6-31G(d)

acetone [rdkit]

0 1
C      -1.28861600     -0.07996100      0.05165400
C       0.03570300      0.46646400     -0.40869400
C       1.26929500     -0.17247400      0.16951700
O       0.10639800      1.39012200     -1.21796000
H      -1.36080100     -1.13746800     -0.21402700
H      -2.10189400      0.46373900     -0.43697600
H      -1.38013700      0.04458600      1.13342600
H       1.28915300     -1.23331000     -0.09192100
H       2.16108100      0.30955700     -0.24055000
H       1.26981900     -0.05125500      1.25553000

