%NProcShared=4
%Mem=4GB
%Chk=acetone_xtb.chk
#p opt B3LYP/6-31G(d)

acetone [xtb]

0 1
C      -2.03464780     -0.12444981      0.66561832
C       0.53323224     -1.31044811      1.26282622
C       1.40138363     -0.28195598     -1.30642259
O       0.09456524      0.29996816      0.11805887
H       1.17164484      2.54247702      0.41576358
H      -1.11254127     -1.57597779     -1.50032104
H      -1.16512630      0.45556292     -0.58689046
H       0.30146936     -1.06261781     -0.34307885
H      -0.46288943      0.03910786      1.49928744
H       1.27291049      1.01833355     -0.22484150

