%NProcShared=4
%Mem=4GB
%Chk=acetamide_rdkit.chk
#p opt B3LYP/6-31G(d)

acetamide

0 1
C      -1.06908900     -0.28855500     -0.00371000
C       0.16811900      0.52142300     -0.26702900
N       1.31552900      0.03516000      0.28188400
O       0.16700500      1.55391800     -0.92632900
H      -1.45478200     -0.67120300     -0.95229100
H      -0.86279300     -1.13412000      0.65837000
H      -1.81938700      0.34903100      0.47151300
H       2.17235600      0.52765600      0.06411700
H       1.38304300     -0.89331000      0.67347600

