%NProcShared=4
%Mem=4GB
%Chk=phenol_xtb.chk
#p opt B3LYP/6-31G(d)

phenol [xtb]

0 1
O       0.74187140     -0.51073422      0.11412208
C      -0.04836535     -1.24557284     -1.67417867
C       1.96356004      1.18096639     -0.59673055
C      -0.41353878      1.03135011     -1.06492600
C      -0.20515300      1.13554809      1.23111749
C      -1.61792764     -0.58598339      0.03724466
C      -0.18314452     -1.18270245      1.80453936
H       1.03446333     -0.02391761     -1.19020619
H       0.57537354      1.93646999     -0.05626064
H       1.06409837      0.02454472      1.33951781
H      -1.34537190     -0.24989036     -1.54552246
H      -0.19638179     -1.51436902      0.05594329
H      -1.36948369      0.00428859      1.54533881

