%NProcShared=4
%Mem=4GB
%Chk=phenol_rdkit.chk
#p opt B3LYP/6-31G(d)

phenol [rdkit]

0 1
O       2.47795900      0.21074500     -0.19298900
C       1.12124400      0.10925700     -0.09931600
C       0.51236200     -1.04614200      0.38259000
C      -0.88017300     -1.10507300      0.46080500
C      -1.65091500     -0.01296100      0.05833600
C      -1.03041500      1.14036500     -0.42320400
C       0.36070600      1.20129200     -0.50215800
H       2.87086500     -0.61988100      0.12073400
H       1.09894200     -1.90245600      0.69886200
H      -1.36625800     -2.00213500      0.83548600
H      -2.73514900     -0.06035400      0.11983300
H      -1.62897500      1.99131500     -0.73688000
H       0.84980700      2.09602900     -0.87603700

