%NProcShared=4
%Mem=4GB
%Chk=acrolein_ml.chk
#p opt freq B3LYP/6-31G(d)

acrolein ml

0 1
C      -1.22422100      0.05142100     -0.01689000
C      -0.02030900     -0.47406500      0.20513100
C       1.21229000      0.27750600     -0.12532400
O       2.30690500     -0.19180900      0.07287900
H      -1.36087700      1.04166800     -0.44459200
H      -2.12111900     -0.51160300      0.23054600
H       0.12167000     -1.46451000      0.63289600
H       1.06655400      1.28713900     -0.56137300

