%NProcShared=4
%Mem=4GB
%Chk=acrolein_rdkit.chk
#p opt freq B3LYP/6-31G(d)

acrolein rdkit

0 1
C      -1.22422100      0.05142100     -0.01689000
C      -0.01573300     -0.47606200      0.20597400
C       1.21034500      0.27632000     -0.12480300
O       2.32124000     -0.19795600      0.07547500
H      -1.36065800      1.04008200     -0.44390700
H      -2.11999700     -0.51089900      0.23023700
H       0.12144000     -1.46290900      0.63220400
H       1.06758400      1.28000300     -0.55829100

