%NProcShared=4
%Mem=4GB
%Chk=propyne_rdkit.chk
#p opt B3LYP/6-31G(d)

propyne

0 1
C      -0.94112900      0.10357100      0.42930000
C       0.49985400     -0.05500800      0.23018400
C       1.68225200     -0.18513100      0.06680200
H      -1.43799500      0.35953300     -0.51133600
H      -1.38579300     -0.82191700      0.80736500
H      -1.14890400      0.89957600      1.15068200
H       2.73171400     -0.30062300     -0.07820900

