%NProcShared=4
%Mem=4GB
%Chk=trimethylamine_rdkit.chk
#p opt B3LYP/6-31G(d)

trimethylamine

0 1
C       1.07543600     -0.86469200      0.14657700
N       0.06830200      0.14221300      0.47909100
C      -1.27644200     -0.41772800      0.34919700
C       0.21768400      1.31714500     -0.37879000
H       0.99135000     -1.72830500      0.81572900
H       0.98307800     -1.21873300     -0.88669800
H       2.08423100     -0.45933000      0.28324500
H      -2.03084500      0.32272300      0.63776800
H      -1.49135400     -0.74847900     -0.67351800
H      -1.40344100     -1.27318400      1.02205000
H      -0.50945600      2.08925200     -0.10350200
H       0.08062900      1.07679800     -1.43944100
H       1.21082800      1.76231900     -0.25170800

